29871211145644035 -3 0
h 4 1 0
7173331200762663 -6 0
h 5 11 0
10492398620449177 -5 0
h 3 7 0
h 9 11 0
h 10 -1 -11 0
h 1 2 0
2593607998029366 -2 0
h 6 0
h 8 -4 0
4393045353783364 -8 0
24546017284668702 -9 0
h -7 -4 0
32763444620208819 -10 0
